c FILE: I13.clq
c
c SOURCE: Generated by Breno Maurício de Freitas Viana
c         writed
c
c           Graph Stats
c number of vertices  : 32
c number of edges     : 96
p col 32 96
e 1 2
e 1 3
e 1 4
e 1 8
e 1 10
e 1 15
e 1 19
e 1 20
e 1 25
e 1 28
e 1 32
e 2 3
e 2 4
e 2 5
e 2 6
e 2 8
e 2 10
e 2 15
e 2 19
e 2 20
e 2 25
e 2 28
e 2 32
e 3 4
e 4 5
e 4 6
e 4 8
e 5 6
e 5 8
e 6 8
e 7 8
e 7 9
e 7 10
e 8 10
e 8 15
e 8 19
e 8 20
e 8 25
e 8 28
e 8 32
e 9 10
e 10 15
e 10 19
e 10 20
e 10 25
e 10 28
e 10 32
e 11 12
e 11 13
e 11 14
e 11 16
e 11 17
e 11 19
e 12 13
e 12 14
e 12 16
e 12 17
e 12 25
e 13 14
e 13 16
e 13 17
e 13 26
e 14 16
e 14 17
e 14 29
e 14 30
e 15 19
e 15 20
e 15 25
e 15 28
e 15 32
e 16 17
e 16 29
e 16 30
e 16 31
e 18 19
e 18 21
e 19 20
e 19 25
e 19 28
e 19 32
e 20 25
e 20 28
e 20 32
e 21 22
e 21 24
e 22 23
e 23 24
e 25 26
e 25 28
e 25 32
e 26 27
e 27 28
e 28 32
e 29 30
e 30 31